p cnf 121 407
c p weight -47 1 0
c p weight 47 -1 0
c p weight 51 6.12323399573676603586882014729198302312846062338790031898128063403419218957424163818359375E-17 0
c p weight -51 1 0
c p weight 52 1 0
c p weight -52 1 0
c p weight -49 1 0
c p weight 49 -1 0
c p weight -53 1 0
c p weight 53 -1 0
c p weight -55 1 0
c p weight 55 -1 0
c p weight -58 1 0
c p weight 58 -1 0
c p weight -61 1 0
c p weight 61 -1 0
c p weight -64 1 0
c p weight 64 -1 0
c p weight -67 1 0
c p weight 67 -1 0
c p weight -70 1 0
c p weight 70 -1 0
c p weight -73 1 0
c p weight 73 -1 0
c p weight -76 1 0
c p weight 76 -1 0
c p weight -79 1 0
c p weight 79 -1 0
c p weight -82 1 0
c p weight 82 -1 0
c p weight -85 1 0
c p weight 85 -1 0
c p weight -88 1 0
c p weight 88 -1 0
c p weight -91 1 0
c p weight 91 -1 0
c p weight -94 1 0
c p weight 94 -1 0
c p weight -97 1 0
c p weight 97 -1 0
c p weight -100 1 0
c p weight 100 -1 0
c p weight -103 1 0
c p weight 103 -1 0
c p weight -106 1 0
c p weight 106 -1 0
c p weight -109 1 0
c p weight 109 -1 0
c p weight -112 1 0
c p weight 112 -1 0
c p weight -115 1 0
c p weight 115 -1 0
c p weight -118 1 0
c p weight 118 -1 0
c p weight 121 0.5 0
c p weight -121 1 0
121 0
-45 0
-43 0
-41 0
-39 0
-37 0
-35 0
-33 0
-31 0
-29 0
-27 0
-25 0
-23 0
-21 0
-19 0
-17 0
-15 0
-13 0
-11 0
-9 0
-7 0
-5 0
-3 0
-1 0
-47 45 0
-47 46 0
47 -45 -46 0
48 45 -46 0
48 -45 46 0
-48 45 46 0
-48 -45 -46 0
-49 50 0
-49 48 0
-49 -45 0
49 -50 45 -48 0
50 -45 48 0
-50 45 48 0
-51 48 0
50 -51 -45 0
-50 -51 45 0
50 51 45 -48 0
-50 51 -45 -48 0
-52 48 0
50 -52 45 0
-50 -52 -45 0
50 52 -45 -48 0
-50 52 45 -48 0
-53 50 0
-53 48 0
53 -50 -48 0
54 50 -48 0
54 -50 48 0
-54 50 48 0
-54 -50 -48 0
-55 50 0
-55 44 0
-55 43 -54 0
-55 -43 54 0
55 -50 43 54 -44 0
55 -50 -43 -54 -44 0
57 50 -43 0
57 -50 43 0
-57 50 43 0
-57 -50 -43 0
56 54 -44 0
56 -54 44 0
-56 54 44 0
-56 -54 -44 0
-58 57 0
-58 42 0
-58 41 -44 0
-58 -41 44 0
58 -57 41 44 -42 0
58 -57 -41 -44 -42 0
60 57 -41 0
60 -57 41 0
-60 57 41 0
-60 -57 -41 0
59 44 -42 0
59 -44 42 0
-59 44 42 0
-59 -44 -42 0
-61 60 0
-61 40 0
-61 39 -42 0
-61 -39 42 0
61 -60 39 42 -40 0
61 -60 -39 -42 -40 0
63 60 -39 0
63 -60 39 0
-63 60 39 0
-63 -60 -39 0
62 42 -40 0
62 -42 40 0
-62 42 40 0
-62 -42 -40 0
-64 63 0
-64 38 0
-64 37 -40 0
-64 -37 40 0
64 -63 37 40 -38 0
64 -63 -37 -40 -38 0
66 63 -37 0
66 -63 37 0
-66 63 37 0
-66 -63 -37 0
65 40 -38 0
65 -40 38 0
-65 40 38 0
-65 -40 -38 0
-67 66 0
-67 36 0
-67 35 -38 0
-67 -35 38 0
67 -66 35 38 -36 0
67 -66 -35 -38 -36 0
69 66 -35 0
69 -66 35 0
-69 66 35 0
-69 -66 -35 0
68 38 -36 0
68 -38 36 0
-68 38 36 0
-68 -38 -36 0
-70 69 0
-70 34 0
-70 33 -36 0
-70 -33 36 0
70 -69 33 36 -34 0
70 -69 -33 -36 -34 0
72 69 -33 0
72 -69 33 0
-72 69 33 0
-72 -69 -33 0
71 36 -34 0
71 -36 34 0
-71 36 34 0
-71 -36 -34 0
-73 72 0
-73 32 0
-73 31 -34 0
-73 -31 34 0
73 -72 31 34 -32 0
73 -72 -31 -34 -32 0
75 72 -31 0
75 -72 31 0
-75 72 31 0
-75 -72 -31 0
74 34 -32 0
74 -34 32 0
-74 34 32 0
-74 -34 -32 0
-76 75 0
-76 30 0
-76 29 -32 0
-76 -29 32 0
76 -75 29 32 -30 0
76 -75 -29 -32 -30 0
78 75 -29 0
78 -75 29 0
-78 75 29 0
-78 -75 -29 0
77 32 -30 0
77 -32 30 0
-77 32 30 0
-77 -32 -30 0
-79 78 0
-79 28 0
-79 27 -30 0
-79 -27 30 0
79 -78 27 30 -28 0
79 -78 -27 -30 -28 0
81 78 -27 0
81 -78 27 0
-81 78 27 0
-81 -78 -27 0
80 30 -28 0
80 -30 28 0
-80 30 28 0
-80 -30 -28 0
-82 81 0
-82 26 0
-82 25 -28 0
-82 -25 28 0
82 -81 25 28 -26 0
82 -81 -25 -28 -26 0
84 81 -25 0
84 -81 25 0
-84 81 25 0
-84 -81 -25 0
83 28 -26 0
83 -28 26 0
-83 28 26 0
-83 -28 -26 0
-85 84 0
-85 24 0
-85 23 -26 0
-85 -23 26 0
85 -84 23 26 -24 0
85 -84 -23 -26 -24 0
87 84 -23 0
87 -84 23 0
-87 84 23 0
-87 -84 -23 0
86 26 -24 0
86 -26 24 0
-86 26 24 0
-86 -26 -24 0
-88 87 0
-88 22 0
-88 21 -24 0
-88 -21 24 0
88 -87 21 24 -22 0
88 -87 -21 -24 -22 0
90 87 -21 0
90 -87 21 0
-90 87 21 0
-90 -87 -21 0
89 24 -22 0
89 -24 22 0
-89 24 22 0
-89 -24 -22 0
-91 90 0
-91 20 0
-91 19 -22 0
-91 -19 22 0
91 -90 19 22 -20 0
91 -90 -19 -22 -20 0
93 90 -19 0
93 -90 19 0
-93 90 19 0
-93 -90 -19 0
92 22 -20 0
92 -22 20 0
-92 22 20 0
-92 -22 -20 0
-94 93 0
-94 18 0
-94 17 -20 0
-94 -17 20 0
94 -93 17 20 -18 0
94 -93 -17 -20 -18 0
96 93 -17 0
96 -93 17 0
-96 93 17 0
-96 -93 -17 0
95 20 -18 0
95 -20 18 0
-95 20 18 0
-95 -20 -18 0
-97 96 0
-97 16 0
-97 15 -18 0
-97 -15 18 0
97 -96 15 18 -16 0
97 -96 -15 -18 -16 0
99 96 -15 0
99 -96 15 0
-99 96 15 0
-99 -96 -15 0
98 18 -16 0
98 -18 16 0
-98 18 16 0
-98 -18 -16 0
-100 99 0
-100 14 0
-100 13 -16 0
-100 -13 16 0
100 -99 13 16 -14 0
100 -99 -13 -16 -14 0
102 99 -13 0
102 -99 13 0
-102 99 13 0
-102 -99 -13 0
101 16 -14 0
101 -16 14 0
-101 16 14 0
-101 -16 -14 0
-103 102 0
-103 12 0
-103 11 -14 0
-103 -11 14 0
103 -102 11 14 -12 0
103 -102 -11 -14 -12 0
105 102 -11 0
105 -102 11 0
-105 102 11 0
-105 -102 -11 0
104 14 -12 0
104 -14 12 0
-104 14 12 0
-104 -14 -12 0
-106 105 0
-106 10 0
-106 9 -12 0
-106 -9 12 0
106 -105 9 12 -10 0
106 -105 -9 -12 -10 0
108 105 -9 0
108 -105 9 0
-108 105 9 0
-108 -105 -9 0
107 12 -10 0
107 -12 10 0
-107 12 10 0
-107 -12 -10 0
-109 108 0
-109 8 0
-109 7 -10 0
-109 -7 10 0
109 -108 7 10 -8 0
109 -108 -7 -10 -8 0
111 108 -7 0
111 -108 7 0
-111 108 7 0
-111 -108 -7 0
110 10 -8 0
110 -10 8 0
-110 10 8 0
-110 -10 -8 0
-112 111 0
-112 6 0
-112 5 -8 0
-112 -5 8 0
112 -111 5 8 -6 0
112 -111 -5 -8 -6 0
114 111 -5 0
114 -111 5 0
-114 111 5 0
-114 -111 -5 0
113 8 -6 0
113 -8 6 0
-113 8 6 0
-113 -8 -6 0
-115 114 0
-115 4 0
-115 3 -6 0
-115 -3 6 0
115 -114 3 6 -4 0
115 -114 -3 -6 -4 0
117 114 -3 0
117 -114 3 0
-117 114 3 0
-117 -114 -3 0
116 6 -4 0
116 -6 4 0
-116 6 4 0
-116 -6 -4 0
-118 117 0
-118 2 0
-118 1 -4 0
-118 -1 4 0
118 -117 1 4 -2 0
118 -117 -1 -4 -2 0
120 117 -1 0
120 -117 1 0
-120 117 1 0
-120 -117 -1 0
119 4 -2 0
119 -4 2 0
-119 4 2 0
-119 -4 -2 0
-120 0
-117 0
-119 0
-114 0
-116 0
-111 0
-113 0
-108 0
-110 0
-105 0
-107 0
-102 0
-104 0
-99 0
-101 0
-96 0
-98 0
-93 0
-95 0
-90 0
-92 0
-87 0
-89 0
-84 0
-86 0
-81 0
-83 0
-78 0
-80 0
-75 0
-77 0
-72 0
-74 0
-69 0
-71 0
-66 0
-68 0
-63 0
-65 0
-60 0
-62 0
-57 0
-59 0
-50 0
-56 0
